0 0 0 0
0 1 0 0
0 2 0 0
0 3 0 0
0 4 0 4
0 5 0 3
0 6 0 4
0 7 0 5
0 8 0 6
0 9 0 6
0 10 0 7
0 11 0 8
0 12 0 8
0 13 0 4
0 14 2 27
0 15 2 13
0 16 0 15
0 17 0 15
0 18 0 5
0 19 0 20
0 20 0 6
0 21 0 7
0 22 1 10
0 23 1 9
0 24 0 20
0 25 0 25
0 26 0 19
0 27 0 32
0 28 2 31
0 29 2 29
0 30 0 35
0 31 0 37
